p edge 126 347
e 10 11
e 10 24
e 10 65
e 10 110
e 11 24
e 11 65
e 11 110
e 24 65
e 24 110
e 65 110
e 1 14
e 1 44
e 14 44
e 8 58
e 8 123
e 58 123
e 5 110
e 2 3
e 2 4
e 2 6
e 2 7
e 2 14
e 2 44
e 3 4
e 3 6
e 3 7
e 3 14
e 3 44
e 4 6
e 4 7
e 4 14
e 4 44
e 6 7
e 6 14
e 6 44
e 7 14
e 7 44
e 102 119
e 84 110
e 10 49
e 11 49
e 24 49
e 49 65
e 35 44
e 12 44
e 50 120
e 30 65
e 30 67
e 65 67
e 25 31
e 25 35
e 25 49
e 25 51
e 25 66
e 31 35
e 31 49
e 31 51
e 31 66
e 35 49
e 35 51
e 35 66
e 49 51
e 49 66
e 51 66
e 94 123
e 59 83
e 59 86
e 59 107
e 83 86
e 83 107
e 86 107
e 58 82
e 58 100
e 82 100
e 45 95
e 19 46
e 94 112
e 94 124
e 112 124
e 59 90
e 59 95
e 86 90
e 86 95
e 90 95
e 9 49
e 81 114
e 37 125
e 106 111
e 106 126
e 111 126
e 26 27
e 26 28
e 26 29
e 26 74
e 26 75
e 26 101
e 27 28
e 27 29
e 27 74
e 27 75
e 27 101
e 28 29
e 28 74
e 28 75
e 28 101
e 29 74
e 29 75
e 29 101
e 74 75
e 74 101
e 75 101
e 75 126
e 97 122
e 74 119
e 99 106
e 91 125
e 96 109
e 72 111
e 72 126
e 98 114
e 15 116
e 55 80
e 55 90
e 80 90
e 71 111
e 71 125
e 111 125
e 32 33
e 55 94
e 55 95
e 55 125
e 80 94
e 80 95
e 80 125
e 94 95
e 94 125
e 95 125
e 48 87
e 48 90
e 48 98
e 87 90
e 87 98
e 90 98
e 30 31
e 30 49
e 30 66
e 31 67
e 49 67
e 66 67
e 80 112
e 80 121
e 80 124
e 94 121
e 112 121
e 121 124
e 64 78
e 64 93
e 64 98
e 78 93
e 78 98
e 93 98
e 66 87
e 67 87
e 22 79
e 22 86
e 22 90
e 22 95
e 79 86
e 79 90
e 79 95
e 20 21
e 20 78
e 20 87
e 21 78
e 21 87
e 78 87
e 96 108
e 109 110
e 25 65
e 35 65
e 51 65
e 103 117
e 103 122
e 117 122
e 115 119
e 115 120
e 119 120
e 46 58
e 46 82
e 46 83
e 46 100
e 58 83
e 82 83
e 83 100
e 34 45
e 18 109
e 34 104
e 34 112
e 34 124
e 104 112
e 104 124
e 79 87
e 79 93
e 79 121
e 87 93
e 87 121
e 93 121
e 56 64
e 56 78
e 56 98
e 85 118
e 104 114
e 116 119
e 116 120
e 96 115
e 84 102
e 84 108
e 102 108
e 76 82
e 76 109
e 82 109
e 82 93
e 93 100
e 93 109
e 100 109
e 70 83
e 70 107
e 70 108
e 70 116
e 83 108
e 83 116
e 107 108
e 107 116
e 108 116
e 54 69
e 53 56
e 47 62
e 47 104
e 47 114
e 62 104
e 62 114
e 62 68
e 42 43
e 85 123
e 62 113
e 104 113
e 113 114
e 42 47
e 42 88
e 43 47
e 43 88
e 47 88
e 68 88
e 68 124
e 88 124
e 13 52
e 68 126
e 112 113
e 112 123
e 113 123
e 16 36
e 16 68
e 36 68
e 41 92
e 41 117
e 92 117
e 89 120
e 38 39
e 38 115
e 38 121
e 39 115
e 39 121
e 115 121
e 40 57
e 40 60
e 40 61
e 57 60
e 57 61
e 60 61
e 89 105
e 63 77
e 63 101
e 63 125
e 77 101
e 77 125
e 101 125
e 17 60
e 17 61
e 17 107
e 60 107
e 61 107
e 92 124
e 92 126
e 124 126
e 97 118
e 118 122
e 73 119
e 103 121
e 117 121
e 121 122
e 84 119
e 84 120
e 102 120
e 70 76
e 54 83
e 54 115
e 69 83
e 69 115
e 83 115
e 53 93
e 53 100
e 53 107
e 93 107
e 100 107
e 73 103
e 73 124
e 73 126
e 103 124
e 103 126
e 114 118
e 54 88
e 53 57
e 70 92
e 70 121
e 92 121
e 77 88
e 77 100
e 77 102
e 77 115
e 77 117
e 77 120
e 88 100
e 88 102
e 88 115
e 88 117
e 88 120
e 100 102
e 100 115
e 100 117
e 100 120
e 102 115
e 102 117
e 115 117
e 117 120
e 57 114
e 105 107
e 23 69
